sat
(:max-memory         18.05
 :memory             17.93
 :nlsat-propagations 9
 :nlsat-stages       4
 :num-allocs         5491
 :rlimit-count       1511
 :time               0.00
 :total-time         0.01)
